c Random generated cnf formula, satisfiable: false
p cnf 10 50
-10 4 -1 0
-2 -5 -3 0
1 -9 -4 0
1 6 2 0
7 -10 -9 0
2 -6 -4 0
-4 -8 3 0
-6 -1 3 0
4 -9 -1 0
-1 6 2 0
1 -3 -5 0
-1 7 -3 0
-2 3 -10 0
10 -9 -1 0
-2 -4 -1 0
-1 -3 -8 0
1 -9 8 0
7 2 -10 0
6 -9 3 0
-4 -8 -6 0
-9 -7 -4 0
-9 5 -3 0
-4 6 -2 0
8 -4 -2 0
6 9 -8 0
9 2 3 0
-8 7 1 0
-7 -4 -3 0
4 1 -8 0
6 3 1 0
3 -8 -6 0
10 -8 -6 0
9 1 -6 0
-2 3 9 0
2 7 -1 0
5 -2 3 0
8 3 6 0
-2 -8 9 0
-2 9 1 0
-5 -10 -3 0
-1 -3 -7 0
2 4 -1 0
6 8 -5 0
2 -10 -9 0
-1 6 10 0
-7 -10 -4 0
-3 6 -9 0
5 3 10 0
-2 4 -8 0
-10 3 -1 0
